100 8
424 131
185 597
858 308
781 288
261 426
722 433
168 265
755 394
686 579
602 630
653 858
803 621
810 650
757 490
446 345
238 314
272 501
158 374
478 251
815 601
132 637
501 521
698 493
96 51
431 193
801 712
827 424
289 371
529 124
85 175
591 274
643 776
467 194
529 177
219 198
303 327
328 701
495 784
336 659
83 691
480 651
807 615
202 602
523 813
212 162
581 830
255 587
844 395
454 623
143 327
494 310
214 35
217 390
101 436
117 37
512 594
333 573
376 139
439 654
267 445
753 510
112 527
681 603
547 523
101 741
575 528
895 341
531 316
511 256
549 653
432 694
63 169
501 768
74 68
187 581
550 258
230 42
590 327
818 699
642 787
82 151
608 886
809 279
687 435
728 420
511 299
741 690
116 268
264 432
737 75
140 327
395 306
263 392
128 733
77 755
98 533
363 265
448 734
700 701
266 263
